c File: flat50_3_0.col
c
c SOURCE: Joseph Culberson (joe@cs.ualberta.ca)
c DESCRIPTION: Quasi-random coloring problem
c              generated with flatness = 0
c                             probability = 0.139
c                             known coloring = 3
c                             random seed = 1043
c              Creation Date:  Tue Jun  9 11:59:48 1998
c Maximum degree = 8 Minimum degree = 0
c p edge 50 115
c cnf created by edge2cnf
p cnf 150 545
-1 -2 0
-1 -3 0
-2 -3 0
1 2 3 0
-4 -5 0
-4 -6 0
-5 -6 0
4 5 6 0
-7 -8 0
-7 -9 0
-8 -9 0
7 8 9 0
-10 -11 0
-10 -12 0
-11 -12 0
10 11 12 0
-13 -14 0
-13 -15 0
-14 -15 0
13 14 15 0
-16 -17 0
-16 -18 0
-17 -18 0
16 17 18 0
-19 -20 0
-19 -21 0
-20 -21 0
19 20 21 0
-22 -23 0
-22 -24 0
-23 -24 0
22 23 24 0
-25 -26 0
-25 -27 0
-26 -27 0
25 26 27 0
-28 -29 0
-28 -30 0
-29 -30 0
28 29 30 0
-31 -32 0
-31 -33 0
-32 -33 0
31 32 33 0
-34 -35 0
-34 -36 0
-35 -36 0
34 35 36 0
-37 -38 0
-37 -39 0
-38 -39 0
37 38 39 0
-40 -41 0
-40 -42 0
-41 -42 0
40 41 42 0
-43 -44 0
-43 -45 0
-44 -45 0
43 44 45 0
-46 -47 0
-46 -48 0
-47 -48 0
46 47 48 0
-49 -50 0
-49 -51 0
-50 -51 0
49 50 51 0
-52 -53 0
-52 -54 0
-53 -54 0
52 53 54 0
-55 -56 0
-55 -57 0
-56 -57 0
55 56 57 0
-58 -59 0
-58 -60 0
-59 -60 0
58 59 60 0
-61 -62 0
-61 -63 0
-62 -63 0
61 62 63 0
-64 -65 0
-64 -66 0
-65 -66 0
64 65 66 0
-67 -68 0
-67 -69 0
-68 -69 0
67 68 69 0
-70 -71 0
-70 -72 0
-71 -72 0
70 71 72 0
-73 -74 0
-73 -75 0
-74 -75 0
73 74 75 0
-76 -77 0
-76 -78 0
-77 -78 0
76 77 78 0
-79 -80 0
-79 -81 0
-80 -81 0
79 80 81 0
-82 -83 0
-82 -84 0
-83 -84 0
82 83 84 0
-85 -86 0
-85 -87 0
-86 -87 0
85 86 87 0
-88 -89 0
-88 -90 0
-89 -90 0
88 89 90 0
-91 -92 0
-91 -93 0
-92 -93 0
91 92 93 0
-94 -95 0
-94 -96 0
-95 -96 0
94 95 96 0
-97 -98 0
-97 -99 0
-98 -99 0
97 98 99 0
-100 -101 0
-100 -102 0
-101 -102 0
100 101 102 0
-103 -104 0
-103 -105 0
-104 -105 0
103 104 105 0
-106 -107 0
-106 -108 0
-107 -108 0
106 107 108 0
-109 -110 0
-109 -111 0
-110 -111 0
109 110 111 0
-112 -113 0
-112 -114 0
-113 -114 0
112 113 114 0
-115 -116 0
-115 -117 0
-116 -117 0
115 116 117 0
-118 -119 0
-118 -120 0
-119 -120 0
118 119 120 0
-121 -122 0
-121 -123 0
-122 -123 0
121 122 123 0
-124 -125 0
-124 -126 0
-125 -126 0
124 125 126 0
-127 -128 0
-127 -129 0
-128 -129 0
127 128 129 0
-130 -131 0
-130 -132 0
-131 -132 0
130 131 132 0
-133 -134 0
-133 -135 0
-134 -135 0
133 134 135 0
-136 -137 0
-136 -138 0
-137 -138 0
136 137 138 0
-139 -140 0
-139 -141 0
-140 -141 0
139 140 141 0
-142 -143 0
-142 -144 0
-143 -144 0
142 143 144 0
-145 -146 0
-145 -147 0
-146 -147 0
145 146 147 0
-148 -149 0
-148 -150 0
-149 -150 0
148 149 150 0
-58 -1 0
-59 -2 0
-60 -3 0
-64 -1 0
-65 -2 0
-66 -3 0
-79 -1 0
-80 -2 0
-81 -3 0
-82 -1 0
-83 -2 0
-84 -3 0
-109 -1 0
-110 -2 0
-111 -3 0
-112 -1 0
-113 -2 0
-114 -3 0
-142 -1 0
-143 -2 0
-144 -3 0
-145 -1 0
-146 -2 0
-147 -3 0
-82 -4 0
-83 -5 0
-84 -6 0
-58 -7 0
-59 -8 0
-60 -9 0
-76 -7 0
-77 -8 0
-78 -9 0
-88 -7 0
-89 -8 0
-90 -9 0
-91 -7 0
-92 -8 0
-93 -9 0
-103 -7 0
-104 -8 0
-105 -9 0
-139 -7 0
-140 -8 0
-141 -9 0
-67 -10 0
-68 -11 0
-69 -12 0
-91 -10 0
-92 -11 0
-93 -12 0
-94 -10 0
-95 -11 0
-96 -12 0
-115 -10 0
-116 -11 0
-117 -12 0
-124 -10 0
-125 -11 0
-126 -12 0
-127 -10 0
-128 -11 0
-129 -12 0
-61 -13 0
-62 -14 0
-63 -15 0
-64 -13 0
-65 -14 0
-66 -15 0
-88 -13 0
-89 -14 0
-90 -15 0
-97 -13 0
-98 -14 0
-99 -15 0
-112 -13 0
-113 -14 0
-114 -15 0
-118 -13 0
-119 -14 0
-120 -15 0
-127 -13 0
-128 -14 0
-129 -15 0
-67 -16 0
-68 -17 0
-69 -18 0
-79 -16 0
-80 -17 0
-81 -18 0
-130 -16 0
-131 -17 0
-132 -18 0
-103 -19 0
-104 -20 0
-105 -21 0
-142 -19 0
-143 -20 0
-144 -21 0
-148 -19 0
-149 -20 0
-150 -21 0
-52 -22 0
-53 -23 0
-54 -24 0
-76 -22 0
-77 -23 0
-78 -24 0
-88 -22 0
-89 -23 0
-90 -24 0
-94 -22 0
-95 -23 0
-96 -24 0
-121 -22 0
-122 -23 0
-123 -24 0
-124 -22 0
-125 -23 0
-126 -24 0
-145 -22 0
-146 -23 0
-147 -24 0
-85 -25 0
-86 -26 0
-87 -27 0
-148 -25 0
-149 -26 0
-150 -27 0
-64 -28 0
-65 -29 0
-66 -30 0
-109 -28 0
-110 -29 0
-111 -30 0
-130 -28 0
-131 -29 0
-132 -30 0
-142 -28 0
-143 -29 0
-144 -30 0
-97 -31 0
-98 -32 0
-99 -33 0
-103 -31 0
-104 -32 0
-105 -33 0
-127 -31 0
-128 -32 0
-129 -33 0
-142 -31 0
-143 -32 0
-144 -33 0
-76 -34 0
-77 -35 0
-78 -36 0
-91 -34 0
-92 -35 0
-93 -36 0
-112 -34 0
-113 -35 0
-114 -36 0
-139 -34 0
-140 -35 0
-141 -36 0
-91 -37 0
-92 -38 0
-93 -39 0
-115 -37 0
-116 -38 0
-117 -39 0
-127 -37 0
-128 -38 0
-129 -39 0
-52 -40 0
-53 -41 0
-54 -42 0
-70 -40 0
-71 -41 0
-72 -42 0
-130 -40 0
-131 -41 0
-132 -42 0
-145 -40 0
-146 -41 0
-147 -42 0
-94 -43 0
-95 -44 0
-96 -45 0
-97 -43 0
-98 -44 0
-99 -45 0
-100 -43 0
-101 -44 0
-102 -45 0
-106 -43 0
-107 -44 0
-108 -45 0
-145 -43 0
-146 -44 0
-147 -45 0
-148 -43 0
-149 -44 0
-150 -45 0
-52 -46 0
-53 -47 0
-54 -48 0
-70 -46 0
-71 -47 0
-72 -48 0
-79 -46 0
-80 -47 0
-81 -48 0
-103 -46 0
-104 -47 0
-105 -48 0
-136 -46 0
-137 -47 0
-138 -48 0
-55 -49 0
-56 -50 0
-57 -51 0
-67 -49 0
-68 -50 0
-69 -51 0
-76 -49 0
-77 -50 0
-78 -51 0
-97 -49 0
-98 -50 0
-99 -51 0
-109 -55 0
-110 -56 0
-111 -57 0
-118 -55 0
-119 -56 0
-120 -57 0
-127 -55 0
-128 -56 0
-129 -57 0
-106 -58 0
-107 -59 0
-108 -60 0
-133 -58 0
-134 -59 0
-135 -60 0
-106 -61 0
-107 -62 0
-108 -63 0
-115 -61 0
-116 -62 0
-117 -63 0
-130 -61 0
-131 -62 0
-132 -63 0
-142 -61 0
-143 -62 0
-144 -63 0
-106 -64 0
-107 -65 0
-108 -66 0
-118 -64 0
-119 -65 0
-120 -66 0
-139 -64 0
-140 -65 0
-141 -66 0
-124 -67 0
-125 -68 0
-126 -69 0
-136 -67 0
-137 -68 0
-138 -69 0
-118 -70 0
-119 -71 0
-120 -72 0
-148 -70 0
-149 -71 0
-150 -72 0
-103 -76 0
-104 -77 0
-105 -78 0
-106 -76 0
-107 -77 0
-108 -78 0
-112 -76 0
-113 -77 0
-114 -78 0
-118 -76 0
-119 -77 0
-120 -78 0
-103 -79 0
-104 -80 0
-105 -81 0
-115 -79 0
-116 -80 0
-117 -81 0
-121 -79 0
-122 -80 0
-123 -81 0
-127 -79 0
-128 -80 0
-129 -81 0
-103 -82 0
-104 -83 0
-105 -84 0
-133 -82 0
-134 -83 0
-135 -84 0
-121 -85 0
-122 -86 0
-123 -87 0
-124 -85 0
-125 -86 0
-126 -87 0
-142 -85 0
-143 -86 0
-144 -87 0
-121 -88 0
-122 -89 0
-123 -90 0
-112 -91 0
-113 -92 0
-114 -93 0
-103 -94 0
-104 -95 0
-105 -96 0
-109 -94 0
-110 -95 0
-111 -96 0
-139 -94 0
-140 -95 0
-141 -96 0
-133 -97 0
-134 -98 0
-135 -99 0
-112 -100 0
-113 -101 0
-114 -102 0
-124 -100 0
-125 -101 0
-126 -102 0
-133 -100 0
-134 -101 0
-135 -102 0
